units metal
atom_style atomic
timestep 0.001

variable t equal 900
variable lp equal 4.123
variable bs equal 10
variable rs equal 1

region R_BOX block 0 $(v_lp * v_bs) 0 $(v_lp * v_bs) 0 $(v_lp * v_bs)
create_box 2 R_BOX

# load potential                                                                
pair_style eam/alloy                                                            
pair_coeff * * AlHe_Men_exp6.eam Al He

lattice fcc ${lp}
create_atoms 1 region R_BOX

write_dump all custom ${path}/reference.atom id type x y z

# create bubble
region R_BUBBLE sphere $((v_bs / 2) * v_lp) $((v_bs / 2) * v_lp) $((v_bs / 2) * v_lp) $(v_r * v_lp) units box

delete_atoms region R_BUBBLE
reset_atoms id
create_atoms 2 random ${n} ${rs} R_BUBBLE

group G_HE type 2
group G_AL type 1

pair_style none
pair_style lj/cut 10.0
pair_coeff * * 1.7666 4.0

fix F_SETFORCE G_AL setforce 0.0 0.0 0.0
minimize 1.0e-4 1.0e-6 1000 100000
unfix F_SETFORCE

# reload potential                                                                
pair_style none
pair_style eam/alloy                                                            
pair_coeff * * AlHe_Men_exp6.eam Al He

velocity all create ${t} ${rs}

fix F_NVT all nvt temp ${t} ${t} 0.3
dump D_DUMP all custom ${d} ${path}/*.atom id type x y z

thermo ${d}

run ${rr}
